100 10
418 32
349 638
439 626
865 372
460 387
439 205
443 449
627 451
847 707
577 359
770 505
415 849
492 551
509 814
785 250
580 629
757 213
474 748
194 845
344 848
880 97
758 244
633 454
845 925
537 530
647 550
433 216
597 343
617 40
485 555
536 115
867 910
367 538
651 403
608 296
797 176
436 204
464 428
430 577
891 263
675 255
642 447
598 810
414 800
426 309
707 633
699 51
128 614
775 392
377 41
538 429
544 692
113 511
197 595
506 124
640 635
569 690
791 643
437 342
543 310
682 139
846 191
768 485
428 65
459 710
500 898
546 569
593 442
636 373
397 574
391 817
465 75
162 366
697 515
777 689
668 448
672 823
959 656
707 454
822 217
635 459
886 602
502 857
571 262
349 447
774 511
623 653
563 573
825 511
454 348
383 147
400 521
792 269
335 867
804 300
762 459
729 757
764 282
740 839
829 388
